WARNING: for repeatability, setting FPU to use double precision
============================[ Problem Statistics ]=============================
|                                                                             |
|  Number of variables:            50                                         |
|  Number of clauses:             218                                         |
|  Parse time:                   0.00 s                                       |
|                                                                             |
============================[ Search Statistics ]==============================
| Conflicts |          ORIGINAL         |          LEARNT          | Progress |
|           |    Vars  Clauses Literals |    Limit  Clauses Lit/Cl |          |
===============================================================================
===============================================================================
restarts              : 1
conflicts             : 62             (322917 /sec)
decisions             : 69             (0.00 % random) (359375 /sec)
propagations          : 828            (4312500 /sec)
conflict literals     : 242            (16.26 % deleted)
Memory used           : 20.00 MB
CPU time              : 0.000192 s

UNSATISFIABLE
